Minimize
 obj: 0 X_0_1
Subject To
 out_0:
  + 1 X_0_1 + 1 X_0_2 + 1 X_0_3 + 1 X_0_4
  = 1
 in_0:
  + 1 X_1_0 + 1 X_2_0 + 1 X_3_0 + 1 X_4_0
  = 1
 out_1:
  + 1 X_1_0 + 1 X_1_2 + 1 X_1_3 + 1 X_1_4
  = 1
 in_1:
  + 1 X_0_1 + 1 X_2_1 + 1 X_3_1 + 1 X_4_1
  = 1
 out_2:
  + 1 X_2_0 + 1 X_2_1 + 1 X_2_3 + 1 X_2_4
  = 1
 in_2:
  + 1 X_0_2 + 1 X_1_2 + 1 X_3_2 + 1 X_4_2
  = 1
 out_3:
  + 1 X_3_0 + 1 X_3_1 + 1 X_3_2 + 1 X_3_4
  = 1
 in_3:
  + 1 X_0_3 + 1 X_1_3 + 1 X_2_3 + 1 X_4_3
  = 1
 out_4:
  + 1 X_4_0 + 1 X_4_1 + 1 X_4_2 + 1 X_4_3
  = 1
 in_4:
  + 1 X_0_4 + 1 X_1_4 + 1 X_2_4 + 1 X_3_4
  = 1
 mtz_1_2:
  + 1 U1 - 1 U2 + 4 X_1_2
  <= 3
 mtz_1_3:
  + 1 U1 - 1 U3 + 4 X_1_3
  <= 3
 mtz_1_4:
  + 1 U1 - 1 U4 + 4 X_1_4
  <= 3
 mtz_2_1:
  + 1 U2 - 1 U1 + 4 X_2_1
  <= 3
 mtz_2_3:
  + 1 U2 - 1 U3 + 4 X_2_3
  <= 3
 mtz_2_4:
  + 1 U2 - 1 U4 + 4 X_2_4
  <= 3
 mtz_3_1:
  + 1 U3 - 1 U1 + 4 X_3_1
  <= 3
 mtz_3_2:
  + 1 U3 - 1 U2 + 4 X_3_2
  <= 3
 mtz_3_4:
  + 1 U3 - 1 U4 + 4 X_3_4
  <= 3
 mtz_4_1:
  + 1 U4 - 1 U1 + 4 X_4_1
  <= 3
 mtz_4_2:
  + 1 U4 - 1 U2 + 4 X_4_2
  <= 3
 mtz_4_3:
  + 1 U4 - 1 U3 + 4 X_4_3
  <= 3
 obj1:
  + 427 X_0_1 + 642 X_0_2 + 960 X_0_3 + 695 X_0_4 + 427 X_1_0 + 251 X_1_2 + 846 X_1_3 + 378 X_1_4
  + 642 X_2_0 + 251 X_2_1 + 709 X_2_3 + 174 X_2_4 + 960 X_3_0 + 846 X_3_1 + 709 X_3_2 + 538 X_3_4
  + 695 X_4_0 + 378 X_4_1 + 174 X_4_2 + 538 X_4_3
  <= 1
 obj2:
  + 723 X_0_1 + 885 X_0_2 + 464 X_0_3 + 873 X_0_4 + 723 X_1_0 + 281 X_1_2 + 488 X_1_3 + 242 X_1_4
  + 885 X_2_0 + 281 X_2_1 + 506 X_2_3 + 43 X_2_4 + 464 X_3_0 + 488 X_3_1 + 506 X_3_2 + 512 X_3_4
  + 873 X_4_0 + 242 X_4_1 + 43 X_4_2 + 512 X_4_3
  <= 2
 obj3:
  + 213 X_0_1 + 279 X_0_2 + 215 X_0_3 + 191 X_0_4 + 213 X_1_0 + 135 X_1_2 + 428 X_1_3 + 292 X_1_4
  + 279 X_2_0 + 135 X_2_1 + 484 X_2_3 + 260 X_2_4 + 215 X_3_0 + 428 X_3_1 + 484 X_3_2 + 293 X_3_4
  + 191 X_4_0 + 292 X_4_1 + 260 X_4_2 + 293 X_4_3
  <= 3
 obj4:
  + 332 X_0_1 + 262 X_0_2 + 548 X_0_3 + 527 X_0_4 + 332 X_1_0 + 524 X_1_2 + 672 X_1_3 + 417 X_1_4
  + 262 X_2_0 + 524 X_2_1 + 335 X_2_3 + 505 X_2_4 + 548 X_3_0 + 672 X_3_1 + 335 X_3_2 + 404 X_3_4
  + 527 X_4_0 + 417 X_4_1 + 505 X_4_2 + 404 X_4_3
  <= 4
 obj5:
  + 705 X_0_1 + 1021 X_0_2 + 579 X_0_3 + 748 X_0_4 + 705 X_1_0 + 376 X_1_2 + 472 X_1_3 + 46 X_1_4
  + 1021 X_2_0 + 376 X_2_1 + 841 X_2_3 + 355 X_2_4 + 579 X_3_0 + 472 X_3_1 + 841 X_3_2 + 486 X_3_4
  + 748 X_4_0 + 46 X_4_1 + 355 X_4_2 + 486 X_4_3
  <= 5
 obj6:
  + 483 X_0_1 + 232 X_0_2 + 629 X_0_3 + 609 X_0_4 + 483 X_1_0 + 700 X_1_2 + 560 X_1_3 + 722 X_1_4
  + 232 X_2_0 + 700 X_2_1 + 832 X_2_3 + 761 X_2_4 + 629 X_3_0 + 560 X_3_1 + 832 X_3_2 + 248 X_3_4
  + 609 X_4_0 + 722 X_4_1 + 761 X_4_2 + 248 X_4_3
  <= 6
Bounds
 1 <= U1 <= 4
 1 <= U2 <= 4
 1 <= U3 <= 4
 1 <= U4 <= 4
Binary
 X_0_1
 X_0_2
 X_0_3
 X_0_4
 X_1_0
 X_1_2
 X_1_3
 X_1_4
 X_2_0
 X_2_1
 X_2_3
 X_2_4
 X_3_0
 X_3_1
 X_3_2
 X_3_4
 X_4_0
 X_4_1
 X_4_2
 X_4_3
End
